10J3M/DAT/10J3MUTR-16.dat
10 3
25.187 49.4738
19.735 25.5401
11.4311 33.7273
44.1793 11.7496
49.4727 28.8415
49.0792 20.9001
14.3677 29.0329
36.7567 30.7889
19.3864 24.0249
18.8715 40.7432
73.7056