10J3M/SOL/10J3MUTR-16.sol
solution status: optimal solution found
objective value:                     86.1727779711297
x#1#2                               0.245495635148053 	(obj:0)
x#1#3                               0.754504364851946 	(obj:0)
x#2#1                                               1 	(obj:0)
x#4#1                               0.623188731216476 	(obj:0)
x#4#2                               0.376811268783524 	(obj:0)
x#5#3                                               1 	(obj:0)
x#6#2                                0.63943225371229 	(obj:0)
x#6#3                                0.36056774628771 	(obj:0)
x#7#2                                               1 	(obj:0)
x#8#1                               0.521401598748215 	(obj:0)
x#8#2                               0.478598401251785 	(obj:0)
x#9#1                                               1 	(obj:0)
x#10#1                             0.0187761393312255 	(obj:0)
z                                    86.1727779711297 	(obj:1)
